1 1
2 1
3 1
4 2
5 2
6 1
7 1
8 1
9 1
10 2
11 2
12 2
13 1
14 1
15 1
16 2
17 2
18 2
19 2
20 2
21 2
22 2
23 1
24 2
25 2
26 1
27 2
28 2
29 2
30 2
31 1
32 1
33 2
34 2
35 1
36 2
37 2
38 1
39 1
40 2
41 1
42 2
43 1
44 1
45 1
46 2
47 1
48 1
49 1
50 1
